(declare-const a Real)
(declare-const b Real)
(declare-const c Real)
(assert (= (+ a b c) 3))
(assert (> a 0))
(assert (> b 0))
(assert (> c 0))
(assert (not (<= (+ (* (pow (+ (* 120 (pow c 2)) (* 168 (pow a 2)) (* 168 (pow b 2))) -2) (pow (+ (* 120 b (pow c 2)) (* 168 b (pow a 2)) (* 168 c (pow b 2))) 3)) (* -552 a (pow c 4)) (* -552 b (pow a 4)) (* -184 a (pow b 4)) (* -184 b (pow c 4)) (* -168 (pow a 2) (pow c 3)) (* -168 (pow a 3) (pow b 2)) (* 456 (pow a 3) (pow c 2)) (* (/ -2109 4) c (pow b 4)) (* (/ -637 4) c (pow a 4)) (* 448 a b (pow c 3)) (* 547 a c (pow b 3)) (* 547 b c (pow a 3)) (* (/ 81 2) c (pow a 2) (pow b 2))) 0)))
(check-sat)
(get-model)
(exit)